p cnf 200 1110
-101 -52 0
-101 -25 0
-101 69 0
-101 9 0
-101 -42 0
-101 66 0
-101 18 0
-101 -47 0
-101 -59 0
-101 60 0
101 52 25 -69 -9 42 -66 -18 47 59 -60 0
-102 -78 0
-102 -43 0
-102 47 0
-102 83 0
-102 40 0
-102 73 0
-102 -41 0
-102 -46 0
-102 24 0
-102 -36 0
102 78 43 -47 -83 -40 -73 41 46 -24 36 0
-103 52 0
-103 46 0
-103 64 0
-103 95 0
-103 78 0
-103 93 0
-103 -53 0
-103 39 0
-103 76 0
-103 -74 0
103 -52 -46 -64 -95 -78 -93 53 -39 -76 74 0
-104 -92 0
-104 64 0
-104 -6 0
-104 -59 0
-104 35 0
-104 -50 0
-104 -34 0
-104 -21 0
-104 -100 0
-104 -95 0
104 92 -64 6 59 -35 50 34 21 100 95 0
-105 -34 0
-105 -80 0
-105 74 0
-105 77 0
-105 19 0
-105 26 0
-105 61 0
-105 86 0
-105 90 0
-105 58 0
105 34 80 -74 -77 -19 -26 -61 -86 -90 -58 0
-106 -12 0
-106 4 0
-106 -11 0
-106 26 0
-106 10 0
-106 48 0
-106 -18 0
-106 -27 0
-106 -68 0
-106 -36 0
106 12 -4 11 -26 -10 -48 18 27 68 36 0
-107 -36 0
-107 -9 0
-107 -34 0
-107 3 0
-107 89 0
-107 90 0
-107 -63 0
-107 66 0
-107 69 0
-107 26 0
107 36 9 34 -3 -89 -90 63 -66 -69 -26 0
-108 83 0
-108 90 0
-108 -56 0
-108 61 0
-108 32 0
-108 89 0
-108 27 0
-108 57 0
-108 -88 0
-108 79 0
108 -83 -90 56 -61 -32 -89 -27 -57 88 -79 0
-109 -10 0
-109 -47 0
-109 71 0
-109 23 0
-109 -86 0
-109 95 0
-109 -63 0
-109 100 0
-109 -91 0
-109 -50 0
109 10 47 -71 -23 86 -95 63 -100 91 50 0
-110 64 0
-110 72 0
-110 12 0
-110 -97 0
-110 18 0
-110 33 0
-110 -95 0
-110 45 0
-110 -96 0
-110 28 0
110 -64 -72 -12 97 -18 -33 95 -45 96 -28 0
101 102 103 104 105 106 107 108 109 110 0
-111 -76 0
-111 79 0
-111 10 0
-111 19 0
-111 -89 0
-111 51 0
-111 37 0
-111 59 0
-111 57 0
-111 85 0
111 76 -79 -10 -19 89 -51 -37 -59 -57 -85 0
-112 -15 0
-112 78 0
-112 70 0
-112 -22 0
-112 -24 0
-112 -6 0
-112 -35 0
-112 -36 0
-112 -82 0
-112 -97 0
112 15 -78 -70 22 24 6 35 36 82 97 0
-113 -23 0
-113 -47 0
-113 -73 0
-113 -16 0
-113 -74 0
-113 -59 0
-113 -84 0
-113 82 0
-113 40 0
-113 -94 0
113 23 47 73 16 74 59 84 -82 -40 94 0
-114 -99 0
-114 23 0
-114 89 0
-114 -36 0
-114 -72 0
-114 -55 0
-114 79 0
-114 94 0
-114 52 0
-114 19 0
114 99 -23 -89 36 72 55 -79 -94 -52 -19 0
-115 -96 0
-115 -37 0
-115 85 0
-115 52 0
-115 -38 0
-115 14 0
-115 -59 0
-115 -17 0
-115 -48 0
-115 26 0
115 96 37 -85 -52 38 -14 59 17 48 -26 0
-116 -53 0
-116 -27 0
-116 60 0
-116 -4 0
-116 83 0
-116 -23 0
-116 80 0
-116 -31 0
-116 -19 0
-116 -13 0
116 53 27 -60 4 -83 23 -80 31 19 13 0
-117 -15 0
-117 -75 0
-117 1 0
-117 -89 0
-117 42 0
-117 29 0
-117 -36 0
-117 -22 0
-117 -73 0
-117 74 0
117 15 75 -1 89 -42 -29 36 22 73 -74 0
-118 65 0
-118 9 0
-118 -97 0
-118 26 0
-118 -73 0
-118 41 0
-118 -54 0
-118 46 0
-118 -24 0
-118 30 0
118 -65 -9 97 -26 73 -41 54 -46 24 -30 0
-119 64 0
-119 -95 0
-119 38 0
-119 -39 0
-119 32 0
-119 -6 0
-119 62 0
-119 -69 0
-119 21 0
-119 -60 0
119 -64 95 -38 39 -32 6 -62 69 -21 60 0
-120 -71 0
-120 -95 0
-120 48 0
-120 10 0
-120 -65 0
-120 30 0
-120 -74 0
-120 -16 0
-120 -82 0
-120 -44 0
120 71 95 -48 -10 65 -30 74 16 82 44 0
111 112 113 114 115 116 117 118 119 120 0
-121 31 0
-121 8 0
-121 66 0
-121 -44 0
-121 -99 0
-121 26 0
-121 -12 0
-121 -10 0
-121 -15 0
-121 -75 0
121 -31 -8 -66 44 99 -26 12 10 15 75 0
-122 -69 0
-122 -8 0
-122 -20 0
-122 6 0
-122 25 0
-122 5 0
-122 24 0
-122 -1 0
-122 -36 0
-122 -51 0
122 69 8 20 -6 -25 -5 -24 1 36 51 0
-123 -91 0
-123 -56 0
-123 24 0
-123 -38 0
-123 66 0
-123 -57 0
-123 16 0
-123 78 0
-123 -85 0
-123 -48 0
123 91 56 -24 38 -66 57 -16 -78 85 48 0
-124 -90 0
-124 -95 0
-124 -40 0
-124 -18 0
-124 -86 0
-124 -88 0
-124 70 0
-124 -16 0
-124 49 0
-124 -7 0
124 90 95 40 18 86 88 -70 16 -49 7 0
-125 -94 0
-125 -98 0
-125 67 0
-125 25 0
-125 19 0
-125 14 0
-125 50 0
-125 -51 0
-125 41 0
-125 28 0
125 94 98 -67 -25 -19 -14 -50 51 -41 -28 0
-126 77 0
-126 -53 0
-126 44 0
-126 52 0
-126 41 0
-126 -63 0
-126 -94 0
-126 -29 0
-126 39 0
-126 -40 0
126 -77 53 -44 -52 -41 63 94 29 -39 40 0
-127 -53 0
-127 -70 0
-127 -77 0
-127 -100 0
-127 -92 0
-127 46 0
-127 44 0
-127 -36 0
-127 -21 0
-127 82 0
127 53 70 77 100 92 -46 -44 36 21 -82 0
-128 -25 0
-128 -18 0
-128 1 0
-128 15 0
-128 58 0
-128 59 0
-128 -69 0
-128 -74 0
-128 43 0
-128 11 0
128 25 18 -1 -15 -58 -59 69 74 -43 -11 0
-129 -25 0
-129 -67 0
-129 -20 0
-129 29 0
-129 80 0
-129 41 0
-129 -47 0
-129 -22 0
-129 -93 0
-129 62 0
129 25 67 20 -29 -80 -41 47 22 93 -62 0
-130 -75 0
-130 -24 0
-130 -77 0
-130 49 0
-130 -66 0
-130 -40 0
-130 -88 0
-130 73 0
-130 32 0
-130 -97 0
130 75 24 77 -49 66 40 88 -73 -32 97 0
121 122 123 124 125 126 127 128 129 130 0
-131 -66 0
-131 22 0
-131 -97 0
-131 45 0
-131 -12 0
-131 -14 0
-131 -69 0
-131 77 0
-131 99 0
-131 -36 0
131 66 -22 97 -45 12 14 69 -77 -99 36 0
-132 27 0
-132 46 0
-132 -2 0
-132 -85 0
-132 19 0
-132 28 0
-132 -50 0
-132 -70 0
-132 60 0
-132 -91 0
132 -27 -46 2 85 -19 -28 50 70 -60 91 0
-133 -22 0
-133 36 0
-133 2 0
-133 -29 0
-133 -100 0
-133 55 0
-133 95 0
-133 -65 0
-133 19 0
-133 66 0
133 22 -36 -2 29 100 -55 -95 65 -19 -66 0
-134 -11 0
-134 52 0
-134 -57 0
-134 -83 0
-134 69 0
-134 71 0
-134 12 0
-134 -72 0
-134 77 0
-134 -18 0
134 11 -52 57 83 -69 -71 -12 72 -77 18 0
-135 -98 0
-135 -11 0
-135 -82 0
-135 69 0
-135 50 0
-135 -63 0
-135 62 0
-135 -22 0
-135 -23 0
-135 -73 0
135 98 11 82 -69 -50 63 -62 22 23 73 0
-136 -63 0
-136 -88 0
-136 -13 0
-136 95 0
-136 6 0
-136 -52 0
-136 -17 0
-136 81 0
-136 24 0
-136 31 0
136 63 88 13 -95 -6 52 17 -81 -24 -31 0
-137 -11 0
-137 -48 0
-137 -62 0
-137 -76 0
-137 27 0
-137 100 0
-137 -98 0
-137 24 0
-137 -3 0
-137 36 0
137 11 48 62 76 -27 -100 98 -24 3 -36 0
-138 -50 0
-138 -54 0
-138 16 0
-138 -74 0
-138 21 0
-138 -38 0
-138 -66 0
-138 -49 0
-138 31 0
-138 -92 0
138 50 54 -16 74 -21 38 66 49 -31 92 0
-139 -47 0
-139 73 0
-139 -71 0
-139 16 0
-139 92 0
-139 43 0
-139 -24 0
-139 -80 0
-139 -25 0
-139 35 0
139 47 -73 71 -16 -92 -43 24 80 25 -35 0
-140 -74 0
-140 71 0
-140 -19 0
-140 75 0
-140 100 0
-140 -66 0
-140 61 0
-140 -62 0
-140 -25 0
-140 7 0
140 74 -71 19 -75 -100 66 -61 62 25 -7 0
131 132 133 134 135 136 137 138 139 140 0
-141 58 0
-141 76 0
-141 -15 0
-141 -56 0
-141 -51 0
-141 19 0
-141 22 0
-141 -40 0
-141 -78 0
-141 -73 0
141 -58 -76 15 56 51 -19 -22 40 78 73 0
-142 -20 0
-142 45 0
-142 -90 0
-142 -30 0
-142 -92 0
-142 -21 0
-142 -39 0
-142 -6 0
-142 2 0
-142 -88 0
142 20 -45 90 30 92 21 39 6 -2 88 0
-143 -66 0
-143 -97 0
-143 -69 0
-143 83 0
-143 27 0
-143 -57 0
-143 -12 0
-143 -81 0
-143 -6 0
-143 -10 0
143 66 97 69 -83 -27 57 12 81 6 10 0
-144 -79 0
-144 -53 0
-144 -32 0
-144 -96 0
-144 2 0
-144 36 0
-144 72 0
-144 -90 0
-144 6 0
-144 70 0
144 79 53 32 96 -2 -36 -72 90 -6 -70 0
-145 21 0
-145 35 0
-145 5 0
-145 58 0
-145 88 0
-145 -41 0
-145 -47 0
-145 60 0
-145 -8 0
-145 4 0
145 -21 -35 -5 -58 -88 41 47 -60 8 -4 0
-146 -95 0
-146 -56 0
-146 -78 0
-146 -85 0
-146 -34 0
-146 77 0
-146 -19 0
-146 69 0
-146 -24 0
-146 -53 0
146 95 56 78 85 34 -77 19 -69 24 53 0
-147 -7 0
-147 -81 0
-147 84 0
-147 -85 0
-147 34 0
-147 21 0
-147 62 0
-147 -43 0
-147 53 0
-147 27 0
147 7 81 -84 85 -34 -21 -62 43 -53 -27 0
-148 -68 0
-148 65 0
-148 7 0
-148 86 0
-148 -83 0
-148 21 0
-148 45 0
-148 49 0
-148 5 0
-148 -25 0
148 68 -65 -7 -86 83 -21 -45 -49 -5 25 0
-149 -12 0
-149 -7 0
-149 42 0
-149 6 0
-149 -47 0
-149 46 0
-149 -33 0
-149 66 0
-149 39 0
-149 10 0
149 12 7 -42 -6 47 -46 33 -66 -39 -10 0
-150 -97 0
-150 51 0
-150 -65 0
-150 -21 0
-150 -6 0
-150 36 0
-150 48 0
-150 50 0
-150 -32 0
-150 -64 0
150 97 -51 65 21 6 -36 -48 -50 32 64 0
141 142 143 144 145 146 147 148 149 150 0
-151 -81 0
-151 17 0
-151 89 0
-151 63 0
-151 -50 0
-151 -10 0
-151 3 0
-151 -8 0
-151 58 0
-151 -59 0
151 81 -17 -89 -63 50 10 -3 8 -58 59 0
-152 22 0
-152 36 0
-152 -61 0
-152 20 0
-152 -5 0
-152 2 0
-152 93 0
-152 21 0
-152 -79 0
-152 75 0
152 -22 -36 61 -20 5 -2 -93 -21 79 -75 0
-153 -28 0
-153 -44 0
-153 64 0
-153 -42 0
-153 56 0
-153 -93 0
-153 14 0
-153 38 0
-153 -8 0
-153 37 0
153 28 44 -64 42 -56 93 -14 -38 8 -37 0
-154 -2 0
-154 -9 0
-154 -90 0
-154 50 0
-154 -97 0
-154 -13 0
-154 -81 0
-154 -74 0
-154 -1 0
-154 -75 0
154 2 9 90 -50 97 13 81 74 1 75 0
-155 2 0
-155 17 0
-155 -36 0
-155 34 0
-155 20 0
-155 58 0
-155 90 0
-155 -10 0
-155 -13 0
-155 -54 0
155 -2 -17 36 -34 -20 -58 -90 10 13 54 0
-156 92 0
-156 -79 0
-156 -77 0
-156 50 0
-156 25 0
-156 76 0
-156 -43 0
-156 -59 0
-156 33 0
-156 82 0
156 -92 79 77 -50 -25 -76 43 59 -33 -82 0
-157 -93 0
-157 42 0
-157 77 0
-157 -41 0
-157 43 0
-157 55 0
-157 20 0
-157 31 0
-157 27 0
-157 -71 0
157 93 -42 -77 41 -43 -55 -20 -31 -27 71 0
-158 -69 0
-158 57 0
-158 -61 0
-158 -56 0
-158 72 0
-158 47 0
-158 -7 0
-158 -33 0
-158 92 0
-158 -29 0
158 69 -57 61 56 -72 -47 7 33 -92 29 0
-159 30 0
-159 -48 0
-159 -75 0
-159 73 0
-159 -29 0
-159 41 0
-159 15 0
-159 14 0
-159 91 0
-159 -18 0
159 -30 48 75 -73 29 -41 -15 -14 -91 18 0
-160 -37 0
-160 -52 0
-160 81 0
-160 55 0
-160 30 0
-160 62 0
-160 -79 0
-160 -29 0
-160 -96 0
-160 23 0
160 37 52 -81 -55 -30 -62 79 29 96 -23 0
151 152 153 154 155 156 157 158 159 160 0
-161 -5 0
-161 4 0
-161 26 0
-161 88 0
-161 -83 0
-161 32 0
-161 79 0
-161 58 0
-161 95 0
-161 -49 0
161 5 -4 -26 -88 83 -32 -79 -58 -95 49 0
-162 65 0
-162 100 0
-162 -30 0
-162 -82 0
-162 54 0
-162 -95 0
-162 28 0
-162 23 0
-162 -22 0
-162 -5 0
162 -65 -100 30 82 -54 95 -28 -23 22 5 0
-163 -91 0
-163 -94 0
-163 87 0
-163 -56 0
-163 -96 0
-163 37 0
-163 -19 0
-163 -89 0
-163 -95 0
-163 -25 0
163 91 94 -87 56 96 -37 19 89 95 25 0
-164 -34 0
-164 -46 0
-164 -21 0
-164 -42 0
-164 -55 0
-164 -54 0
-164 -37 0
-164 89 0
-164 -81 0
-164 49 0
164 34 46 21 42 55 54 37 -89 81 -49 0
-165 -21 0
-165 8 0
-165 -44 0
-165 54 0
-165 80 0
-165 90 0
-165 -87 0
-165 -19 0
-165 -75 0
-165 -97 0
165 21 -8 44 -54 -80 -90 87 19 75 97 0
-166 -68 0
-166 37 0
-166 -82 0
-166 -34 0
-166 -33 0
-166 -78 0
-166 74 0
-166 -53 0
-166 27 0
-166 96 0
166 68 -37 82 34 33 78 -74 53 -27 -96 0
-167 38 0
-167 3 0
-167 -90 0
-167 49 0
-167 -24 0
-167 -73 0
-167 70 0
-167 -86 0
-167 18 0
-167 35 0
167 -38 -3 90 -49 24 73 -70 86 -18 -35 0
-168 -58 0
-168 74 0
-168 43 0
-168 -36 0
-168 96 0
-168 -7 0
-168 41 0
-168 -62 0
-168 85 0
-168 -37 0
168 58 -74 -43 36 -96 7 -41 62 -85 37 0
-169 74 0
-169 -65 0
-169 -92 0
-169 67 0
-169 37 0
-169 90 0
-169 20 0
-169 18 0
-169 35 0
-169 -25 0
169 -74 65 92 -67 -37 -90 -20 -18 -35 25 0
-170 -4 0
-170 -94 0
-170 -17 0
-170 -21 0
-170 -84 0
-170 6 0
-170 -42 0
-170 -48 0
-170 -2 0
-170 -22 0
170 4 94 17 21 84 -6 42 48 2 22 0
161 162 163 164 165 166 167 168 169 170 0
-171 19 0
-171 -8 0
-171 56 0
-171 93 0
-171 -100 0
-171 -50 0
-171 -83 0
-171 -81 0
-171 6 0
-171 12 0
171 -19 8 -56 -93 100 50 83 81 -6 -12 0
-172 72 0
-172 78 0
-172 42 0
-172 83 0
-172 -56 0
-172 -22 0
-172 87 0
-172 -89 0
-172 53 0
-172 46 0
172 -72 -78 -42 -83 56 22 -87 89 -53 -46 0
-173 39 0
-173 -28 0
-173 26 0
-173 -60 0
-173 -16 0
-173 72 0
-173 -67 0
-173 55 0
-173 -46 0
-173 -71 0
173 -39 28 -26 60 16 -72 67 -55 46 71 0
-174 4 0
-174 11 0
-174 78 0
-174 92 0
-174 83 0
-174 -28 0
-174 -62 0
-174 -58 0
-174 -73 0
-174 -49 0
174 -4 -11 -78 -92 -83 28 62 58 73 49 0
-175 57 0
-175 79 0
-175 -75 0
-175 -2 0
-175 -26 0
-175 68 0
-175 -42 0
-175 100 0
-175 -17 0
-175 69 0
175 -57 -79 75 2 26 -68 42 -100 17 -69 0
-176 -36 0
-176 -38 0
-176 99 0
-176 35 0
-176 -58 0
-176 47 0
-176 60 0
-176 23 0
-176 -91 0
-176 -88 0
176 36 38 -99 -35 58 -47 -60 -23 91 88 0
-177 20 0
-177 -97 0
-177 69 0
-177 5 0
-177 -60 0
-177 -12 0
-177 56 0
-177 -4 0
-177 -28 0
-177 -67 0
177 -20 97 -69 -5 60 12 -56 4 28 67 0
-178 40 0
-178 -3 0
-178 28 0
-178 -87 0
-178 15 0
-178 73 0
-178 61 0
-178 -9 0
-178 81 0
-178 -25 0
178 -40 3 -28 87 -15 -73 -61 9 -81 25 0
-179 15 0
-179 -2 0
-179 -98 0
-179 36 0
-179 -54 0
-179 90 0
-179 76 0
-179 77 0
-179 83 0
-179 -43 0
179 -15 2 98 -36 54 -90 -76 -77 -83 43 0
-180 55 0
-180 52 0
-180 17 0
-180 -81 0
-180 -7 0
-180 -73 0
-180 -94 0
-180 -61 0
-180 22 0
-180 40 0
180 -55 -52 -17 81 7 73 94 61 -22 -40 0
171 172 173 174 175 176 177 178 179 180 0
-181 -76 0
-181 -1 0
-181 -75 0
-181 -78 0
-181 83 0
-181 54 0
-181 55 0
-181 -66 0
-181 19 0
-181 99 0
181 76 1 75 78 -83 -54 -55 66 -19 -99 0
-182 41 0
-182 64 0
-182 55 0
-182 -59 0
-182 9 0
-182 5 0
-182 -90 0
-182 100 0
-182 98 0
-182 24 0
182 -41 -64 -55 59 -9 -5 90 -100 -98 -24 0
-183 54 0
-183 -14 0
-183 -76 0
-183 -53 0
-183 -36 0
-183 -2 0
-183 40 0
-183 11 0
-183 -77 0
-183 84 0
183 -54 14 76 53 36 2 -40 -11 77 -84 0
-184 -4 0
-184 -64 0
-184 -13 0
-184 -99 0
-184 -58 0
-184 -85 0
-184 -24 0
-184 -34 0
-184 -86 0
-184 52 0
184 4 64 13 99 58 85 24 34 86 -52 0
-185 94 0
-185 11 0
-185 98 0
-185 -79 0
-185 -92 0
-185 93 0
-185 31 0
-185 -52 0
-185 -90 0
-185 -43 0
185 -94 -11 -98 79 92 -93 -31 52 90 43 0
-186 15 0
-186 84 0
-186 -77 0
-186 -23 0
-186 -18 0
-186 46 0
-186 80 0
-186 78 0
-186 -10 0
-186 63 0
186 -15 -84 77 23 18 -46 -80 -78 10 -63 0
-187 44 0
-187 -68 0
-187 -13 0
-187 -85 0
-187 -94 0
-187 -82 0
-187 -63 0
-187 35 0
-187 28 0
-187 34 0
187 -44 68 13 85 94 82 63 -35 -28 -34 0
-188 -67 0
-188 16 0
-188 -86 0
-188 -83 0
-188 -49 0
-188 41 0
-188 53 0
-188 19 0
-188 82 0
-188 29 0
188 67 -16 86 83 49 -41 -53 -19 -82 -29 0
-189 95 0
-189 10 0
-189 85 0
-189 -12 0
-189 -23 0
-189 -58 0
-189 73 0
-189 -22 0
-189 -99 0
-189 30 0
189 -95 -10 -85 12 23 58 -73 22 99 -30 0
-190 94 0
-190 -34 0
-190 10 0
-190 -65 0
-190 -99 0
-190 46 0
-190 -26 0
-190 14 0
-190 -42 0
-190 -51 0
190 -94 34 -10 65 99 -46 26 -14 42 51 0
181 182 183 184 185 186 187 188 189 190 0
-191 23 0
-191 97 0
-191 -52 0
-191 -8 0
-191 55 0
-191 -3 0
-191 -43 0
-191 91 0
-191 -60 0
-191 69 0
191 -23 -97 52 8 -55 3 43 -91 60 -69 0
-192 -89 0
-192 -26 0
-192 -77 0
-192 30 0
-192 -11 0
-192 91 0
-192 68 0
-192 42 0
-192 32 0
-192 95 0
192 89 26 77 -30 11 -91 -68 -42 -32 -95 0
-193 -44 0
-193 14 0
-193 15 0
-193 -65 0
-193 2 0
-193 -62 0
-193 74 0
-193 -39 0
-193 -82 0
-193 49 0
193 44 -14 -15 65 -2 62 -74 39 82 -49 0
-194 59 0
-194 -53 0
-194 45 0
-194 84 0
-194 26 0
-194 -71 0
-194 66 0
-194 -1 0
-194 -22 0
-194 -49 0
194 -59 53 -45 -84 -26 71 -66 1 22 49 0
-195 -94 0
-195 3 0
-195 79 0
-195 -98 0
-195 -66 0
-195 -28 0
-195 -59 0
-195 -75 0
-195 -89 0
-195 57 0
195 94 -3 -79 98 66 28 59 75 89 -57 0
-196 31 0
-196 63 0
-196 17 0
-196 74 0
-196 81 0
-196 -55 0
-196 37 0
-196 -89 0
-196 -69 0
-196 36 0
196 -31 -63 -17 -74 -81 55 -37 89 69 -36 0
-197 41 0
-197 -5 0
-197 -1 0
-197 81 0
-197 -46 0
-197 -36 0
-197 -55 0
-197 -76 0
-197 88 0
-197 31 0
197 -41 5 1 -81 46 36 55 76 -88 -31 0
-198 71 0
-198 -10 0
-198 -52 0
-198 42 0
-198 15 0
-198 33 0
-198 78 0
-198 46 0
-198 -48 0
-198 67 0
198 -71 10 52 -42 -15 -33 -78 -46 48 -67 0
-199 -26 0
-199 -33 0
-199 77 0
-199 54 0
-199 -25 0
-199 14 0
-199 -100 0
-199 -31 0
-199 98 0
-199 48 0
199 26 33 -77 -54 25 -14 100 31 -98 -48 0
-200 -6 0
-200 -92 0
-200 -39 0
-200 -13 0
-200 -53 0
-200 20 0
-200 -43 0
-200 29 0
-200 81 0
-200 -32 0
200 6 92 39 13 53 -20 43 -29 -81 32 0
191 192 193 194 195 196 197 198 199 200 0
